results/log/BA_04_makespan_heurFalse.log

Gurobi 10.0.1 (win64) logging started Thu Oct  5 12:31:36 2023

Set parameter LogFile to value "./results//log/BA_04_makespan_heurFalse.log"
Gurobi Optimizer version 10.0.1 build v10.0.1rc0 (win64)

CPU model: AMD Ryzen 7 3700X 8-Core Processor, instruction set [SSE2|AVX|AVX2]
Thread count: 8 physical cores, 16 logical processors, using up to 16 threads

Optimize a model with 44 rows, 49 columns and 129 nonzeros
Model fingerprint: 0x051f17f8
Variable types: 0 continuous, 49 integer (42 binary)
Coefficient statistics:
  Matrix range     [1e+00, 1e+07]
  Objective range  [1e+00, 1e+00]
  Bounds range     [1e+00, 1e+00]
  RHS range        [1e+00, 3e+07]
Found heuristic solution: objective 95.0000000
Presolve removed 28 rows and 37 columns
Presolve time: 0.00s
Presolved: 16 rows, 12 columns, 44 nonzeros
Variable types: 0 continuous, 12 integer (6 binary)
Found heuristic solution: objective 94.0000000

Root relaxation: objective 3.400000e+01, 6 iterations, 0.00 seconds (0.00 work units)

    Nodes    |    Current Node    |     Objective Bounds      |     Work
 Expl Unexpl |  Obj  Depth IntInf | Incumbent    BestBd   Gap | It/Node Time

     0     0   34.00000    0    5   94.00000   34.00000  63.8%     -    0s
H    0     0                      77.0000000   34.00000  55.8%     -    0s
H    0     0                      73.0000000   34.00000  53.4%     -    0s

Cutting planes:
  Implied bound: 3
  RLT: 2

Explored 1 nodes (6 simplex iterations) in 0.00 seconds (0.00 work units)
Thread count was 16 (of 16 available processors)

Solution count 4: 73 77 94 95 

Optimal solution found (tolerance 1.00e-04)
Best objective 7.300000000000e+01, best bound 7.300000000000e+01, gap 0.0000%
Warning: constraint name "precedence between 0,0 to 0,1 if x_[0,0,0,1,1]=0, i.e. 0,1 before 0,0" has a space
Warning: constraint name "precedence between 0,0 to 0,1 if x_[0,0,0,1,1]=0, i.e. 0,1 before 0,0" has a space
Warning: default constraint names used to write mps file
